; benchmark generated from python API
(set-info :status unknown)
(declare-fun strlen_85_64 () (_ BitVec 64))
(declare-fun args_1_8 () (_ BitVec 8))
(declare-fun strlen_83_64 () (_ BitVec 64))
(declare-fun strncmp_ret_84_32 () (_ BitVec 32))
(declare-fun strncmp_ret_86_32 () (_ BitVec 32))
(declare-fun filesize_file_0_/proc/self/loginuid_88_64 () (_ BitVec 64))
(declare-fun syscall_stub_ioctl_95_32 () (_ BitVec 32))
(declare-fun strlen_127_64 () (_ BitVec 64))
(declare-fun mem_7fffffffffef425_126_1032 () (_ BitVec 1032))
(declare-fun access_145_32 () (_ BitVec 32))
(declare-fun access_223_32 () (_ BitVec 32))
(declare-fun mem_2c_2456_264 () (_ BitVec 264))
(declare-fun strlen_2457_64 () (_ BitVec 64))
(declare-fun strlen_3010_64 () (_ BitVec 64))
(declare-fun strlen_3099_64 () (_ BitVec 64))
(declare-fun syscall_stub_connect_3584_64 () (_ BitVec 64))
(declare-fun syscall_stub_connect_10324_64 () (_ BitVec 64))
(assert
 (let ((?x751 (bvadd (_ bv576460752303357826 64) strlen_85_64)))
 (let (($x69 (= (_ bv0 8) args_1_8)))
 (let ((?x46 (ite $x69 (_ bv576460752303357826 64) (_ bv576460752303357827 64))))
 (= ?x46 ?x751)))))
(assert
 (let ((?x101 (bvadd (_ bv576460752303357826 64) strlen_83_64)))
 (let (($x69 (= (_ bv0 8) args_1_8)))
 (let ((?x46 (ite $x69 (_ bv576460752303357826 64) (_ bv576460752303357827 64))))
 (= ?x46 ?x101)))))
(assert
 (let (($x104 (bvule (_ bv2 64) strlen_83_64)))
 (let (($x48 (= (_ bv2 64) strlen_83_64)))
 (let (($x122 (or $x48 $x104)))
 (let (($x123 (not $x122)))
 (let (($x57 (= (_ bv45 8) args_1_8)))
 (let (($x121 (not $x57)))
 (or $x121 $x123))))))))
(assert
 (= (_ bv1 32) strncmp_ret_84_32))
(assert
 (= (_ bv1 32) strncmp_ret_86_32))
(assert
 true)
(assert
 (let (($x1210 (bvsge (_ bv0 64) filesize_file_0_/proc/self/loginuid_88_64)))
 (let ((?x1217 (ite $x1210 (_ bv0 64) filesize_file_0_/proc/self/loginuid_88_64)))
 (let ((?x1236 ((_ extract 3 0) filesize_file_0_/proc/self/loginuid_88_64)))
 (let ((?x99 (ite $x1210 (_ bv0 4) ?x1236)))
 (let (($x1110 (bvule ?x99 (_ bv12 4))))
 (let ((?x1229 ((_ extract 63 4) filesize_file_0_/proc/self/loginuid_88_64)))
 (let (($x523 (= (_ bv0 60) ?x1229)))
 (let (($x516 (or $x1210 $x523)))
 (let (($x975 (and $x516 $x1110)))
 (let ((?x1169 (ite $x975 ?x1217 (_ bv12 64))))
 (= (_ bv12 64) ?x1169))))))))))))
(assert
 (let ((?x47778 ((_ extract 31 31) syscall_stub_ioctl_95_32)))
 (let (($x2287966 (= (_ bv0 1) ?x47778)))
 (not $x2287966))))
(assert
 (let ((?x1084 (bvadd (_ bv576460752303354917 64) strlen_127_64)))
 (let ((?x52808 ((_ extract 559 552) mem_7fffffffffef425_126_1032)))
 (let (($x52714 (= (_ bv0 8) ?x52808)))
 (let ((?x1486 (ite $x52714 (_ bv576460752303354976 64) (_ bv0 64))))
 (let ((?x68162 ((_ extract 567 560) mem_7fffffffffef425_126_1032)))
 (let (($x51938 (= (_ bv0 8) ?x68162)))
 (let ((?x1496 (ite $x51938 (_ bv576460752303354975 64) ?x1486)))
 (let ((?x47605 ((_ extract 575 568) mem_7fffffffffef425_126_1032)))
 (let (($x4159 (= (_ bv0 8) ?x47605)))
 (let ((?x1288 (ite $x4159 (_ bv576460752303354974 64) ?x1496)))
 (let ((?x49571 ((_ extract 583 576) mem_7fffffffffef425_126_1032)))
 (let (($x51673 (= (_ bv0 8) ?x49571)))
 (let ((?x1476 (ite $x51673 (_ bv576460752303354973 64) ?x1288)))
 (let ((?x40774 ((_ extract 591 584) mem_7fffffffffef425_126_1032)))
 (let (($x3246 (= (_ bv0 8) ?x40774)))
 (let ((?x1286 (ite $x3246 (_ bv576460752303354972 64) ?x1476)))
 (let ((?x50496 ((_ extract 599 592) mem_7fffffffffef425_126_1032)))
 (let (($x52540 (= (_ bv0 8) ?x50496)))
 (let ((?x1252 (ite $x52540 (_ bv576460752303354971 64) ?x1286)))
 (let ((?x52544 ((_ extract 607 600) mem_7fffffffffef425_126_1032)))
 (let (($x50708 (= (_ bv0 8) ?x52544)))
 (let ((?x1253 (ite $x50708 (_ bv576460752303354970 64) ?x1252)))
 (let ((?x52089 ((_ extract 615 608) mem_7fffffffffef425_126_1032)))
 (let (($x67642 (= (_ bv0 8) ?x52089)))
 (let ((?x1255 (ite $x67642 (_ bv576460752303354969 64) ?x1253)))
 (let ((?x47297 ((_ extract 623 616) mem_7fffffffffef425_126_1032)))
 (let (($x51687 (= (_ bv0 8) ?x47297)))
 (let ((?x1234 (ite $x51687 (_ bv576460752303354968 64) ?x1255)))
 (let ((?x68040 ((_ extract 631 624) mem_7fffffffffef425_126_1032)))
 (let (($x68043 (= (_ bv0 8) ?x68040)))
 (let ((?x1256 (ite $x68043 (_ bv576460752303354967 64) ?x1234)))
 (let ((?x52883 ((_ extract 639 632) mem_7fffffffffef425_126_1032)))
 (let (($x46310 (= (_ bv0 8) ?x52883)))
 (let ((?x1237 (ite $x46310 (_ bv576460752303354966 64) ?x1256)))
 (let ((?x40719 ((_ extract 647 640) mem_7fffffffffef425_126_1032)))
 (let (($x49930 (= (_ bv0 8) ?x40719)))
 (let ((?x1261 (ite $x49930 (_ bv576460752303354965 64) ?x1237)))
 (let ((?x45847 ((_ extract 655 648) mem_7fffffffffef425_126_1032)))
 (let (($x47824 (= (_ bv0 8) ?x45847)))
 (let ((?x1457 (ite $x47824 (_ bv576460752303354964 64) ?x1261)))
 (let ((?x49566 ((_ extract 663 656) mem_7fffffffffef425_126_1032)))
 (let (($x46318 (= (_ bv0 8) ?x49566)))
 (let ((?x1461 (ite $x46318 (_ bv576460752303354963 64) ?x1457)))
 (let ((?x50491 ((_ extract 671 664) mem_7fffffffffef425_126_1032)))
 (let (($x68024 (= (_ bv0 8) ?x50491)))
 (let ((?x1458 (ite $x68024 (_ bv576460752303354962 64) ?x1461)))
 (let ((?x49356 ((_ extract 679 672) mem_7fffffffffef425_126_1032)))
 (let (($x45644 (= (_ bv0 8) ?x49356)))
 (let ((?x1437 (ite $x45644 (_ bv576460752303354961 64) ?x1458)))
 (let ((?x51970 ((_ extract 687 680) mem_7fffffffffef425_126_1032)))
 (let (($x49414 (= (_ bv0 8) ?x51970)))
 (let ((?x1454 (ite $x49414 (_ bv576460752303354960 64) ?x1437)))
 (let ((?x51445 ((_ extract 695 688) mem_7fffffffffef425_126_1032)))
 (let (($x1523 (= (_ bv0 8) ?x51445)))
 (let ((?x1438 (ite $x1523 (_ bv576460752303354959 64) ?x1454)))
 (let ((?x3090 ((_ extract 703 696) mem_7fffffffffef425_126_1032)))
 (let (($x47844 (= (_ bv0 8) ?x3090)))
 (let ((?x1462 (ite $x47844 (_ bv576460752303354958 64) ?x1438)))
 (let ((?x40461 ((_ extract 711 704) mem_7fffffffffef425_126_1032)))
 (let (($x68054 (= (_ bv0 8) ?x40461)))
 (let ((?x1480 (ite $x68054 (_ bv576460752303354957 64) ?x1462)))
 (let ((?x68026 ((_ extract 719 712) mem_7fffffffffef425_126_1032)))
 (let (($x45665 (= (_ bv0 8) ?x68026)))
 (let ((?x1478 (ite $x45665 (_ bv576460752303354956 64) ?x1480)))
 (let ((?x3197 ((_ extract 727 720) mem_7fffffffffef425_126_1032)))
 (let (($x3068 (= (_ bv0 8) ?x3197)))
 (let ((?x1460 (ite $x3068 (_ bv576460752303354955 64) ?x1478)))
 (let ((?x40832 ((_ extract 735 728) mem_7fffffffffef425_126_1032)))
 (let (($x52449 (= (_ bv0 8) ?x40832)))
 (let ((?x1467 (ite $x52449 (_ bv576460752303354954 64) ?x1460)))
 (let ((?x2840 ((_ extract 743 736) mem_7fffffffffef425_126_1032)))
 (let (($x47629 (= (_ bv0 8) ?x2840)))
 (let ((?x1481 (ite $x47629 (_ bv576460752303354953 64) ?x1467)))
 (let ((?x2175 ((_ extract 751 744) mem_7fffffffffef425_126_1032)))
 (let (($x40529 (= (_ bv0 8) ?x2175)))
 (let ((?x1439 (ite $x40529 (_ bv576460752303354952 64) ?x1481)))
 (let ((?x67962 ((_ extract 759 752) mem_7fffffffffef425_126_1032)))
 (let (($x52205 (= (_ bv0 8) ?x67962)))
 (let ((?x1465 (ite $x52205 (_ bv576460752303354951 64) ?x1439)))
 (let ((?x51942 ((_ extract 767 760) mem_7fffffffffef425_126_1032)))
 (let (($x1888 (= (_ bv0 8) ?x51942)))
 (let ((?x1482 (ite $x1888 (_ bv576460752303354950 64) ?x1465)))
 (let ((?x52856 ((_ extract 775 768) mem_7fffffffffef425_126_1032)))
 (let (($x49412 (= (_ bv0 8) ?x52856)))
 (let ((?x1453 (ite $x49412 (_ bv576460752303354949 64) ?x1482)))
 (let ((?x68169 ((_ extract 783 776) mem_7fffffffffef425_126_1032)))
 (let (($x40717 (= (_ bv0 8) ?x68169)))
 (let ((?x1449 (ite $x40717 (_ bv576460752303354948 64) ?x1453)))
 (let ((?x51419 ((_ extract 791 784) mem_7fffffffffef425_126_1032)))
 (let (($x40509 (= (_ bv0 8) ?x51419)))
 (let ((?x1477 (ite $x40509 (_ bv576460752303354947 64) ?x1449)))
 (let ((?x2834 ((_ extract 799 792) mem_7fffffffffef425_126_1032)))
 (let (($x52530 (= (_ bv0 8) ?x2834)))
 (let ((?x1508 (ite $x52530 (_ bv576460752303354946 64) ?x1477)))
 (let ((?x52420 ((_ extract 807 800) mem_7fffffffffef425_126_1032)))
 (let (($x51981 (= (_ bv0 8) ?x52420)))
 (let ((?x1471 (ite $x51981 (_ bv576460752303354945 64) ?x1508)))
 (let ((?x47679 ((_ extract 815 808) mem_7fffffffffef425_126_1032)))
 (let (($x3356 (= (_ bv0 8) ?x47679)))
 (let ((?x1473 (ite $x3356 (_ bv576460752303354944 64) ?x1471)))
 (let ((?x47461 ((_ extract 823 816) mem_7fffffffffef425_126_1032)))
 (let (($x2818 (= (_ bv0 8) ?x47461)))
 (let ((?x1445 (ite $x2818 (_ bv576460752303354943 64) ?x1473)))
 (let ((?x47459 ((_ extract 831 824) mem_7fffffffffef425_126_1032)))
 (let (($x40763 (= (_ bv0 8) ?x47459)))
 (let ((?x1282 (ite $x40763 (_ bv576460752303354942 64) ?x1445)))
 (let ((?x49771 ((_ extract 839 832) mem_7fffffffffef425_126_1032)))
 (let (($x40661 (= (_ bv0 8) ?x49771)))
 (let ((?x1284 (ite $x40661 (_ bv576460752303354941 64) ?x1282)))
 (let ((?x51963 ((_ extract 847 840) mem_7fffffffffef425_126_1032)))
 (let (($x326 (= (_ bv0 8) ?x51963)))
 (let ((?x1500 (ite $x326 (_ bv576460752303354940 64) ?x1284)))
 (let ((?x67863 ((_ extract 855 848) mem_7fffffffffef425_126_1032)))
 (let (($x40647 (= (_ bv0 8) ?x67863)))
 (let ((?x1444 (ite $x40647 (_ bv576460752303354939 64) ?x1500)))
 (let ((?x52706 ((_ extract 863 856) mem_7fffffffffef425_126_1032)))
 (let (($x2999 (= (_ bv0 8) ?x52706)))
 (let ((?x1289 (ite $x2999 (_ bv576460752303354938 64) ?x1444)))
 (let ((?x40211 ((_ extract 871 864) mem_7fffffffffef425_126_1032)))
 (let (($x47769 (= (_ bv0 8) ?x40211)))
 (let ((?x1292 (ite $x47769 (_ bv576460752303354937 64) ?x1289)))
 (let ((?x3244 ((_ extract 879 872) mem_7fffffffffef425_126_1032)))
 (let (($x50499 (= (_ bv0 8) ?x3244)))
 (let ((?x1294 (ite $x50499 (_ bv576460752303354936 64) ?x1292)))
 (let ((?x49348 ((_ extract 887 880) mem_7fffffffffef425_126_1032)))
 (let (($x51450 (= (_ bv0 8) ?x49348)))
 (let ((?x1296 (ite $x51450 (_ bv576460752303354935 64) ?x1294)))
 (let ((?x40453 ((_ extract 895 888) mem_7fffffffffef425_126_1032)))
 (let (($x40584 (= (_ bv0 8) ?x40453)))
 (let ((?x1297 (ite $x40584 (_ bv576460752303354934 64) ?x1296)))
 (let ((?x47136 ((_ extract 903 896) mem_7fffffffffef425_126_1032)))
 (let (($x45860 (= (_ bv0 8) ?x47136)))
 (let ((?x1300 (ite $x45860 (_ bv576460752303354933 64) ?x1297)))
 (let ((?x50518 ((_ extract 911 904) mem_7fffffffffef425_126_1032)))
 (let (($x40588 (= (_ bv0 8) ?x50518)))
 (let ((?x1302 (ite $x40588 (_ bv576460752303354932 64) ?x1300)))
 (let ((?x51449 ((_ extract 919 912) mem_7fffffffffef425_126_1032)))
 (let (($x52445 (= (_ bv0 8) ?x51449)))
 (let ((?x1305 (ite $x52445 (_ bv576460752303354931 64) ?x1302)))
 (let ((?x2905 ((_ extract 927 920) mem_7fffffffffef425_126_1032)))
 (let (($x68090 (= (_ bv0 8) ?x2905)))
 (let ((?x1306 (ite $x68090 (_ bv576460752303354930 64) ?x1305)))
 (let ((?x40672 ((_ extract 935 928) mem_7fffffffffef425_126_1032)))
 (let (($x40381 (= (_ bv0 8) ?x40672)))
 (let ((?x1308 (ite $x40381 (_ bv576460752303354929 64) ?x1306)))
 (let ((?x52367 ((_ extract 943 936) mem_7fffffffffef425_126_1032)))
 (let (($x40522 (= (_ bv0 8) ?x52367)))
 (let ((?x1310 (ite $x40522 (_ bv576460752303354928 64) ?x1308)))
 (let ((?x3316 ((_ extract 951 944) mem_7fffffffffef425_126_1032)))
 (let (($x49580 (= (_ bv0 8) ?x3316)))
 (let ((?x1312 (ite $x49580 (_ bv576460752303354927 64) ?x1310)))
 (let ((?x3052 ((_ extract 959 952) mem_7fffffffffef425_126_1032)))
 (let (($x3104 (= (_ bv0 8) ?x3052)))
 (let ((?x1314 (ite $x3104 (_ bv576460752303354926 64) ?x1312)))
 (let ((?x3025 ((_ extract 967 960) mem_7fffffffffef425_126_1032)))
 (let (($x52219 (= (_ bv0 8) ?x3025)))
 (let ((?x1316 (ite $x52219 (_ bv576460752303354925 64) ?x1314)))
 (let ((?x371 ((_ extract 975 968) mem_7fffffffffef425_126_1032)))
 (let (($x47238 (= (_ bv0 8) ?x371)))
 (let ((?x1318 (ite $x47238 (_ bv576460752303354924 64) ?x1316)))
 (let ((?x49823 ((_ extract 983 976) mem_7fffffffffef425_126_1032)))
 (let (($x52354 (= (_ bv0 8) ?x49823)))
 (let ((?x1320 (ite $x52354 (_ bv576460752303354923 64) ?x1318)))
 (let ((?x40732 ((_ extract 991 984) mem_7fffffffffef425_126_1032)))
 (let (($x3289 (= (_ bv0 8) ?x40732)))
 (let ((?x1322 (ite $x3289 (_ bv576460752303354922 64) ?x1320)))
 (let ((?x2831 ((_ extract 999 992) mem_7fffffffffef425_126_1032)))
 (let (($x52416 (= (_ bv0 8) ?x2831)))
 (let ((?x1324 (ite $x52416 (_ bv576460752303354921 64) ?x1322)))
 (let ((?x40578 ((_ extract 1007 1000) mem_7fffffffffef425_126_1032)))
 (let (($x1455 (= (_ bv0 8) ?x40578)))
 (let ((?x1326 (ite $x1455 (_ bv576460752303354920 64) ?x1324)))
 (let ((?x1497 ((_ extract 1015 1008) mem_7fffffffffef425_126_1032)))
 (let (($x40665 (= (_ bv0 8) ?x1497)))
 (let ((?x1328 (ite $x40665 (_ bv576460752303354919 64) ?x1326)))
 (let ((?x560 ((_ extract 1023 1016) mem_7fffffffffef425_126_1032)))
 (let (($x50705 (= (_ bv0 8) ?x560)))
 (let ((?x1330 (ite $x50705 (_ bv576460752303354918 64) ?x1328)))
 (let ((?x49765 ((_ extract 1031 1024) mem_7fffffffffef425_126_1032)))
 (let (($x51643 (= (_ bv0 8) ?x49765)))
 (let ((?x1332 (ite $x51643 (_ bv576460752303354917 64) ?x1330)))
 (= ?x1332 ?x1084)))))))))))))))))))))))))))))))))))))))))))))))))))))))))))))))))))))))))))))))))))))))))))))))))))))))))))))))))))))))))))))))))))))))))))))))))))))))))))))))))))))))))))))))))))))))
(assert
 (let ((?x68916 ((_ extract 5 0) strlen_127_64)))
 (let ((?x69422 (bvadd (_ bv1 6) ?x68916)))
 (let (($x109259 (bvule (_ bv31 64) strlen_127_64)))
 (let (($x109263 (bvule strlen_127_64 (_ bv18446744073709551614 64))))
 (let (($x68425 (and $x109263 $x109259)))
 (let ((?x69418 (ite $x68425 (_ bv32 6) ?x69422)))
 (bvule ?x69418 (_ bv32 6)))))))))
(assert
 (let ((?x108314 (bvadd (_ bv1 64) strlen_127_64)))
 (let (($x109259 (bvule (_ bv31 64) strlen_127_64)))
 (let (($x109263 (bvule strlen_127_64 (_ bv18446744073709551614 64))))
 (let (($x68425 (and $x109263 $x109259)))
 (let ((?x108623 (ite $x68425 (_ bv32 64) ?x108314)))
 (bvule (_ bv1 64) ?x108623)))))))
(assert
 (let ((?x68040 ((_ extract 631 624) mem_7fffffffffef425_126_1032)))
 (let (($x68043 (= (_ bv0 8) ?x68040)))
 (let ((?x2840 ((_ extract 743 736) mem_7fffffffffef425_126_1032)))
 (let (($x47629 (= (_ bv0 8) ?x2840)))
 (let ((?x47297 ((_ extract 623 616) mem_7fffffffffef425_126_1032)))
 (let (($x51687 (= (_ bv0 8) ?x47297)))
 (let ((?x52089 ((_ extract 615 608) mem_7fffffffffef425_126_1032)))
 (let (($x67642 (= (_ bv0 8) ?x52089)))
 (let ((?x52544 ((_ extract 607 600) mem_7fffffffffef425_126_1032)))
 (let (($x50708 (= (_ bv0 8) ?x52544)))
 (let ((?x50496 ((_ extract 599 592) mem_7fffffffffef425_126_1032)))
 (let (($x52540 (= (_ bv0 8) ?x50496)))
 (let ((?x40832 ((_ extract 735 728) mem_7fffffffffef425_126_1032)))
 (let (($x52449 (= (_ bv0 8) ?x40832)))
 (let ((?x3197 ((_ extract 727 720) mem_7fffffffffef425_126_1032)))
 (let (($x3068 (= (_ bv0 8) ?x3197)))
 (let ((?x68026 ((_ extract 719 712) mem_7fffffffffef425_126_1032)))
 (let (($x45665 (= (_ bv0 8) ?x68026)))
 (let ((?x40461 ((_ extract 711 704) mem_7fffffffffef425_126_1032)))
 (let (($x68054 (= (_ bv0 8) ?x40461)))
 (let ((?x3090 ((_ extract 703 696) mem_7fffffffffef425_126_1032)))
 (let (($x47844 (= (_ bv0 8) ?x3090)))
 (let ((?x51445 ((_ extract 695 688) mem_7fffffffffef425_126_1032)))
 (let (($x1523 (= (_ bv0 8) ?x51445)))
 (let ((?x51970 ((_ extract 687 680) mem_7fffffffffef425_126_1032)))
 (let (($x49414 (= (_ bv0 8) ?x51970)))
 (let ((?x49356 ((_ extract 679 672) mem_7fffffffffef425_126_1032)))
 (let (($x45644 (= (_ bv0 8) ?x49356)))
 (let ((?x50491 ((_ extract 671 664) mem_7fffffffffef425_126_1032)))
 (let (($x68024 (= (_ bv0 8) ?x50491)))
 (let ((?x49566 ((_ extract 663 656) mem_7fffffffffef425_126_1032)))
 (let (($x46318 (= (_ bv0 8) ?x49566)))
 (let ((?x45847 ((_ extract 655 648) mem_7fffffffffef425_126_1032)))
 (let (($x47824 (= (_ bv0 8) ?x45847)))
 (let ((?x2831 ((_ extract 999 992) mem_7fffffffffef425_126_1032)))
 (let (($x52416 (= (_ bv0 8) ?x2831)))
 (let ((?x47461 ((_ extract 823 816) mem_7fffffffffef425_126_1032)))
 (let (($x2818 (= (_ bv0 8) ?x47461)))
 (let ((?x40672 ((_ extract 935 928) mem_7fffffffffef425_126_1032)))
 (let (($x40381 (= (_ bv0 8) ?x40672)))
 (let ((?x49771 ((_ extract 839 832) mem_7fffffffffef425_126_1032)))
 (let (($x40661 (= (_ bv0 8) ?x49771)))
 (let ((?x52420 ((_ extract 807 800) mem_7fffffffffef425_126_1032)))
 (let (($x51981 (= (_ bv0 8) ?x52420)))
 (let ((?x51419 ((_ extract 791 784) mem_7fffffffffef425_126_1032)))
 (let (($x40509 (= (_ bv0 8) ?x51419)))
 (let ((?x52856 ((_ extract 775 768) mem_7fffffffffef425_126_1032)))
 (let (($x49412 (= (_ bv0 8) ?x52856)))
 (let ((?x3316 ((_ extract 951 944) mem_7fffffffffef425_126_1032)))
 (let (($x49580 (= (_ bv0 8) ?x3316)))
 (let ((?x51449 ((_ extract 919 912) mem_7fffffffffef425_126_1032)))
 (let (($x52445 (= (_ bv0 8) ?x51449)))
 (let ((?x67962 ((_ extract 759 752) mem_7fffffffffef425_126_1032)))
 (let (($x52205 (= (_ bv0 8) ?x67962)))
 (let ((?x3025 ((_ extract 967 960) mem_7fffffffffef425_126_1032)))
 (let (($x52219 (= (_ bv0 8) ?x3025)))
 (let ((?x49823 ((_ extract 983 976) mem_7fffffffffef425_126_1032)))
 (let (($x52354 (= (_ bv0 8) ?x49823)))
 (let ((?x47136 ((_ extract 903 896) mem_7fffffffffef425_126_1032)))
 (let (($x45860 (= (_ bv0 8) ?x47136)))
 (let ((?x49348 ((_ extract 887 880) mem_7fffffffffef425_126_1032)))
 (let (($x51450 (= (_ bv0 8) ?x49348)))
 (let ((?x40211 ((_ extract 871 864) mem_7fffffffffef425_126_1032)))
 (let (($x47769 (= (_ bv0 8) ?x40211)))
 (let ((?x67863 ((_ extract 855 848) mem_7fffffffffef425_126_1032)))
 (let (($x40647 (= (_ bv0 8) ?x67863)))
 (let ((?x49765 ((_ extract 1031 1024) mem_7fffffffffef425_126_1032)))
 (let (($x51643 (= (_ bv0 8) ?x49765)))
 (let ((?x560 ((_ extract 1023 1016) mem_7fffffffffef425_126_1032)))
 (let (($x50705 (= (_ bv0 8) ?x560)))
 (let ((?x1497 ((_ extract 1015 1008) mem_7fffffffffef425_126_1032)))
 (let (($x40665 (= (_ bv0 8) ?x1497)))
 (let ((?x40578 ((_ extract 1007 1000) mem_7fffffffffef425_126_1032)))
 (let (($x1455 (= (_ bv0 8) ?x40578)))
 (let ((?x40732 ((_ extract 991 984) mem_7fffffffffef425_126_1032)))
 (let (($x3289 (= (_ bv0 8) ?x40732)))
 (let ((?x371 ((_ extract 975 968) mem_7fffffffffef425_126_1032)))
 (let (($x47238 (= (_ bv0 8) ?x371)))
 (let ((?x3052 ((_ extract 959 952) mem_7fffffffffef425_126_1032)))
 (let (($x3104 (= (_ bv0 8) ?x3052)))
 (let ((?x52367 ((_ extract 943 936) mem_7fffffffffef425_126_1032)))
 (let (($x40522 (= (_ bv0 8) ?x52367)))
 (let ((?x2905 ((_ extract 927 920) mem_7fffffffffef425_126_1032)))
 (let (($x68090 (= (_ bv0 8) ?x2905)))
 (let ((?x50518 ((_ extract 911 904) mem_7fffffffffef425_126_1032)))
 (let (($x40588 (= (_ bv0 8) ?x50518)))
 (let ((?x40453 ((_ extract 895 888) mem_7fffffffffef425_126_1032)))
 (let (($x40584 (= (_ bv0 8) ?x40453)))
 (let ((?x3244 ((_ extract 879 872) mem_7fffffffffef425_126_1032)))
 (let (($x50499 (= (_ bv0 8) ?x3244)))
 (let ((?x52706 ((_ extract 863 856) mem_7fffffffffef425_126_1032)))
 (let (($x2999 (= (_ bv0 8) ?x52706)))
 (let ((?x51963 ((_ extract 847 840) mem_7fffffffffef425_126_1032)))
 (let (($x326 (= (_ bv0 8) ?x51963)))
 (let ((?x47459 ((_ extract 831 824) mem_7fffffffffef425_126_1032)))
 (let (($x40763 (= (_ bv0 8) ?x47459)))
 (let ((?x47679 ((_ extract 815 808) mem_7fffffffffef425_126_1032)))
 (let (($x3356 (= (_ bv0 8) ?x47679)))
 (let ((?x2834 ((_ extract 799 792) mem_7fffffffffef425_126_1032)))
 (let (($x52530 (= (_ bv0 8) ?x2834)))
 (let ((?x68169 ((_ extract 783 776) mem_7fffffffffef425_126_1032)))
 (let (($x40717 (= (_ bv0 8) ?x68169)))
 (let ((?x51942 ((_ extract 767 760) mem_7fffffffffef425_126_1032)))
 (let (($x1888 (= (_ bv0 8) ?x51942)))
 (let ((?x2175 ((_ extract 751 744) mem_7fffffffffef425_126_1032)))
 (let (($x40529 (= (_ bv0 8) ?x2175)))
 (let ((?x52883 ((_ extract 639 632) mem_7fffffffffef425_126_1032)))
 (let (($x46310 (= (_ bv0 8) ?x52883)))
 (let ((?x40719 ((_ extract 647 640) mem_7fffffffffef425_126_1032)))
 (let (($x49930 (= (_ bv0 8) ?x40719)))
 (let ((?x40774 ((_ extract 591 584) mem_7fffffffffef425_126_1032)))
 (let (($x3246 (= (_ bv0 8) ?x40774)))
 (let ((?x49571 ((_ extract 583 576) mem_7fffffffffef425_126_1032)))
 (let (($x51673 (= (_ bv0 8) ?x49571)))
 (let ((?x47605 ((_ extract 575 568) mem_7fffffffffef425_126_1032)))
 (let (($x4159 (= (_ bv0 8) ?x47605)))
 (let ((?x68162 ((_ extract 567 560) mem_7fffffffffef425_126_1032)))
 (let (($x51938 (= (_ bv0 8) ?x68162)))
 (let ((?x52808 ((_ extract 559 552) mem_7fffffffffef425_126_1032)))
 (let (($x52714 (= (_ bv0 8) ?x52808)))
 (or $x52714 $x51938 $x4159 $x51673 $x3246 $x49930 $x46310 $x40529 $x1888 $x40717 $x52530 $x3356 $x40763 $x326 $x2999 $x50499 $x40584 $x40588 $x68090 $x40522 $x3104 $x47238 $x3289 $x1455 $x40665 $x50705 $x51643 $x40647 $x47769 $x51450 $x45860 $x52354 $x52219 $x52205 $x52445 $x49580 $x49412 $x40509 $x51981 $x40661 $x40381 $x2818 $x52416 $x47824 $x46318 $x68024 $x45644 $x49414 $x1523 $x47844 $x68054 $x45665 $x3068 $x52449 $x52540 $x50708 $x67642 $x51687 $x47629 $x68043))))))))))))))))))))))))))))))))))))))))))))))))))))))))))))))))))))))))))))))))))))))))))))))))))))))))))))))))))))))))))
(assert
 (let (($x109259 (bvule (_ bv31 64) strlen_127_64)))
 (let (($x108305 (not $x109259)))
 (let (($x109263 (bvule strlen_127_64 (_ bv18446744073709551614 64))))
 (let (($x108304 (not $x109263)))
 (let (($x51587 (or $x108304 $x108305)))
 (let (($x68194 (not $x51587)))
 (let ((?x108314 (bvadd (_ bv1 64) strlen_127_64)))
 (let ((?x68760 ((_ extract 63 6) ?x108314)))
 (let (($x68195 (= (_ bv0 58) ?x68760)))
 (or $x68195 $x68194)))))))))))
(assert
 (= (_ bv0 32) access_145_32))
(assert
 (= (_ bv0 32) access_223_32))
(assert
 (let ((?x482633 ((_ extract 15 8) mem_2c_2456_264)))
 (= (_ bv0 8) ?x482633)))
(assert
 (let ((?x482634 ((_ extract 23 16) mem_2c_2456_264)))
 (let (($x481512 (= (_ bv0 8) ?x482634)))
 (not $x481512))))
(assert
 (let ((?x482635 ((_ extract 31 24) mem_2c_2456_264)))
 (let (($x480648 (= (_ bv0 8) ?x482635)))
 (not $x480648))))
(assert
 (let ((?x482636 ((_ extract 39 32) mem_2c_2456_264)))
 (let (($x479208 (= (_ bv0 8) ?x482636)))
 (not $x479208))))
(assert
 (let ((?x482637 ((_ extract 47 40) mem_2c_2456_264)))
 (let (($x476388 (= (_ bv0 8) ?x482637)))
 (not $x476388))))
(assert
 (let ((?x482638 ((_ extract 55 48) mem_2c_2456_264)))
 (let (($x478180 (= (_ bv0 8) ?x482638)))
 (not $x478180))))
(assert
 (let ((?x482639 ((_ extract 63 56) mem_2c_2456_264)))
 (let (($x477849 (= (_ bv0 8) ?x482639)))
 (not $x477849))))
(assert
 (let ((?x482640 ((_ extract 71 64) mem_2c_2456_264)))
 (let (($x479922 (= (_ bv0 8) ?x482640)))
 (not $x479922))))
(assert
 (let ((?x482641 ((_ extract 79 72) mem_2c_2456_264)))
 (let (($x480829 (= (_ bv0 8) ?x482641)))
 (not $x480829))))
(assert
 (let ((?x482642 ((_ extract 87 80) mem_2c_2456_264)))
 (let (($x478156 (= (_ bv0 8) ?x482642)))
 (not $x478156))))
(assert
 (let ((?x482643 ((_ extract 95 88) mem_2c_2456_264)))
 (let (($x478623 (= (_ bv0 8) ?x482643)))
 (not $x478623))))
(assert
 (let ((?x482644 ((_ extract 103 96) mem_2c_2456_264)))
 (let (($x480649 (= (_ bv0 8) ?x482644)))
 (not $x480649))))
(assert
 (let ((?x482645 ((_ extract 111 104) mem_2c_2456_264)))
 (let (($x477410 (= (_ bv0 8) ?x482645)))
 (not $x477410))))
(assert
 (let ((?x482646 ((_ extract 119 112) mem_2c_2456_264)))
 (let (($x480669 (= (_ bv0 8) ?x482646)))
 (not $x480669))))
(assert
 (let ((?x482647 ((_ extract 127 120) mem_2c_2456_264)))
 (let (($x479854 (= (_ bv0 8) ?x482647)))
 (not $x479854))))
(assert
 (let ((?x480666 ((_ extract 135 128) mem_2c_2456_264)))
 (let (($x481118 (= (_ bv0 8) ?x480666)))
 (not $x481118))))
(assert
 (let ((?x479297 ((_ extract 143 136) mem_2c_2456_264)))
 (let (($x479198 (= (_ bv0 8) ?x479297)))
 (not $x479198))))
(assert
 (let ((?x480935 ((_ extract 151 144) mem_2c_2456_264)))
 (let (($x477765 (= (_ bv0 8) ?x480935)))
 (not $x477765))))
(assert
 (let ((?x481064 ((_ extract 159 152) mem_2c_2456_264)))
 (let (($x480654 (= (_ bv0 8) ?x481064)))
 (not $x480654))))
(assert
 (let ((?x476826 ((_ extract 167 160) mem_2c_2456_264)))
 (let (($x479784 (= (_ bv0 8) ?x476826)))
 (not $x479784))))
(assert
 (let ((?x477865 ((_ extract 175 168) mem_2c_2456_264)))
 (let (($x476596 (= (_ bv0 8) ?x477865)))
 (not $x476596))))
(assert
 (let ((?x479942 ((_ extract 183 176) mem_2c_2456_264)))
 (let (($x477132 (= (_ bv0 8) ?x479942)))
 (not $x477132))))
(assert
 (let ((?x475969 ((_ extract 191 184) mem_2c_2456_264)))
 (let (($x481189 (= (_ bv0 8) ?x475969)))
 (not $x481189))))
(assert
 (let ((?x480612 ((_ extract 199 192) mem_2c_2456_264)))
 (let (($x480942 (= (_ bv0 8) ?x480612)))
 (not $x480942))))
(assert
 (let ((?x480850 ((_ extract 207 200) mem_2c_2456_264)))
 (let (($x480619 (= (_ bv0 8) ?x480850)))
 (not $x480619))))
(assert
 (let ((?x481198 ((_ extract 215 208) mem_2c_2456_264)))
 (let (($x480944 (= (_ bv0 8) ?x481198)))
 (not $x480944))))
(assert
 (let ((?x480622 ((_ extract 223 216) mem_2c_2456_264)))
 (let (($x475092 (= (_ bv0 8) ?x480622)))
 (not $x475092))))
(assert
 (let ((?x480625 ((_ extract 231 224) mem_2c_2456_264)))
 (let (($x479466 (= (_ bv0 8) ?x480625)))
 (not $x479466))))
(assert
 (let ((?x480624 ((_ extract 239 232) mem_2c_2456_264)))
 (let (($x481365 (= (_ bv0 8) ?x480624)))
 (not $x481365))))
(assert
 (let ((?x481266 ((_ extract 247 240) mem_2c_2456_264)))
 (let (($x481204 (= (_ bv0 8) ?x481266)))
 (not $x481204))))
(assert
 (let ((?x457031 ((_ extract 255 248) mem_2c_2456_264)))
 (let (($x481373 (= (_ bv0 8) ?x457031)))
 (not $x481373))))
(assert
 (let ((?x455213 ((_ extract 263 256) mem_2c_2456_264)))
 (let (($x481196 (= (_ bv0 8) ?x455213)))
 (not $x481196))))
(assert
 (= (_ bv31 64) strlen_2457_64))
(assert
 (let ((?x482633 ((_ extract 15 8) mem_2c_2456_264)))
 (= (_ bv0 8) ?x482633)))
(assert
 (let ((?x482634 ((_ extract 23 16) mem_2c_2456_264)))
 (let (($x481512 (= (_ bv0 8) ?x482634)))
 (not $x481512))))
(assert
 (let ((?x482635 ((_ extract 31 24) mem_2c_2456_264)))
 (let (($x480648 (= (_ bv0 8) ?x482635)))
 (not $x480648))))
(assert
 (let ((?x482636 ((_ extract 39 32) mem_2c_2456_264)))
 (let (($x479208 (= (_ bv0 8) ?x482636)))
 (not $x479208))))
(assert
 (let ((?x482637 ((_ extract 47 40) mem_2c_2456_264)))
 (let (($x476388 (= (_ bv0 8) ?x482637)))
 (not $x476388))))
(assert
 (let ((?x482638 ((_ extract 55 48) mem_2c_2456_264)))
 (let (($x478180 (= (_ bv0 8) ?x482638)))
 (not $x478180))))
(assert
 (let ((?x482639 ((_ extract 63 56) mem_2c_2456_264)))
 (let (($x477849 (= (_ bv0 8) ?x482639)))
 (not $x477849))))
(assert
 (let ((?x482640 ((_ extract 71 64) mem_2c_2456_264)))
 (let (($x479922 (= (_ bv0 8) ?x482640)))
 (not $x479922))))
(assert
 (let ((?x482641 ((_ extract 79 72) mem_2c_2456_264)))
 (let (($x480829 (= (_ bv0 8) ?x482641)))
 (not $x480829))))
(assert
 (let ((?x482642 ((_ extract 87 80) mem_2c_2456_264)))
 (let (($x478156 (= (_ bv0 8) ?x482642)))
 (not $x478156))))
(assert
 (let ((?x482643 ((_ extract 95 88) mem_2c_2456_264)))
 (let (($x478623 (= (_ bv0 8) ?x482643)))
 (not $x478623))))
(assert
 (let ((?x482644 ((_ extract 103 96) mem_2c_2456_264)))
 (let (($x480649 (= (_ bv0 8) ?x482644)))
 (not $x480649))))
(assert
 (let ((?x482645 ((_ extract 111 104) mem_2c_2456_264)))
 (let (($x477410 (= (_ bv0 8) ?x482645)))
 (not $x477410))))
(assert
 (let ((?x482646 ((_ extract 119 112) mem_2c_2456_264)))
 (let (($x480669 (= (_ bv0 8) ?x482646)))
 (not $x480669))))
(assert
 (let ((?x482647 ((_ extract 127 120) mem_2c_2456_264)))
 (let (($x479854 (= (_ bv0 8) ?x482647)))
 (not $x479854))))
(assert
 (let ((?x480666 ((_ extract 135 128) mem_2c_2456_264)))
 (let (($x481118 (= (_ bv0 8) ?x480666)))
 (not $x481118))))
(assert
 (let ((?x479297 ((_ extract 143 136) mem_2c_2456_264)))
 (let (($x479198 (= (_ bv0 8) ?x479297)))
 (not $x479198))))
(assert
 (let ((?x480935 ((_ extract 151 144) mem_2c_2456_264)))
 (let (($x477765 (= (_ bv0 8) ?x480935)))
 (not $x477765))))
(assert
 (let ((?x481064 ((_ extract 159 152) mem_2c_2456_264)))
 (let (($x480654 (= (_ bv0 8) ?x481064)))
 (not $x480654))))
(assert
 (let ((?x476826 ((_ extract 167 160) mem_2c_2456_264)))
 (let (($x479784 (= (_ bv0 8) ?x476826)))
 (not $x479784))))
(assert
 (let ((?x477865 ((_ extract 175 168) mem_2c_2456_264)))
 (let (($x476596 (= (_ bv0 8) ?x477865)))
 (not $x476596))))
(assert
 (let ((?x479942 ((_ extract 183 176) mem_2c_2456_264)))
 (let (($x477132 (= (_ bv0 8) ?x479942)))
 (not $x477132))))
(assert
 (let ((?x475969 ((_ extract 191 184) mem_2c_2456_264)))
 (let (($x481189 (= (_ bv0 8) ?x475969)))
 (not $x481189))))
(assert
 (let ((?x480612 ((_ extract 199 192) mem_2c_2456_264)))
 (let (($x480942 (= (_ bv0 8) ?x480612)))
 (not $x480942))))
(assert
 (let ((?x480850 ((_ extract 207 200) mem_2c_2456_264)))
 (let (($x480619 (= (_ bv0 8) ?x480850)))
 (not $x480619))))
(assert
 (let ((?x481198 ((_ extract 215 208) mem_2c_2456_264)))
 (let (($x480944 (= (_ bv0 8) ?x481198)))
 (not $x480944))))
(assert
 (let ((?x480622 ((_ extract 223 216) mem_2c_2456_264)))
 (let (($x475092 (= (_ bv0 8) ?x480622)))
 (not $x475092))))
(assert
 (let ((?x480625 ((_ extract 231 224) mem_2c_2456_264)))
 (let (($x479466 (= (_ bv0 8) ?x480625)))
 (not $x479466))))
(assert
 (let ((?x480624 ((_ extract 239 232) mem_2c_2456_264)))
 (let (($x481365 (= (_ bv0 8) ?x480624)))
 (not $x481365))))
(assert
 (let ((?x481266 ((_ extract 247 240) mem_2c_2456_264)))
 (let (($x481204 (= (_ bv0 8) ?x481266)))
 (not $x481204))))
(assert
 (let ((?x457031 ((_ extract 255 248) mem_2c_2456_264)))
 (let (($x481373 (= (_ bv0 8) ?x457031)))
 (not $x481373))))
(assert
 (let ((?x455213 ((_ extract 263 256) mem_2c_2456_264)))
 (let (($x481196 (= (_ bv0 8) ?x455213)))
 (not $x481196))))
(assert
 (= (_ bv31 64) strlen_3010_64))
(assert
 (= (_ bv31 64) strlen_2457_64))
(assert
 (= (_ bv31 64) strlen_3099_64))
(assert
 (= (_ bv31 64) strlen_3010_64))
(assert
 (= (_ bv31 64) strlen_3099_64))
(assert
 (let ((?x894550 ((_ extract 31 0) syscall_stub_connect_3584_64)))
 (let (($x2302967 (= (_ bv4294967181 32) ?x894550)))
 (not $x2302967))))
(assert
 (let (($x891999 (bvule syscall_stub_connect_3584_64 (_ bv18446744073709547520 64))))
 (not $x891999)))
(assert
 (let ((?x2204869 ((_ extract 31 31) syscall_stub_connect_10324_64)))
 (let (($x2300335 (= (_ bv0 1) ?x2204869)))
 (not $x2300335))))
(assert
 (bvule syscall_stub_connect_10324_64 (_ bv18446744073709547520 64)))
(minimize strlen_127_64)
(minimize strlen_3010_64)
(minimize strlen_2457_64)
(maximize syscall_stub_ioctl_95_32)
(maximize mem_7fffffffffef425_126_1032)
(maximize filesize_file_0_/proc/self/loginuid_88_64)
(minimize syscall_stub_connect_10324_64)
(minimize access_145_32)
(maximize strncmp_ret_84_32)
(maximize strncmp_ret_86_32)
(check-sat)
(get-objectives)
